
Welcome to IBM(R) ILOG(R) CPLEX(R) Interactive Optimizer 22.1.1.0
  with Simplex, Mixed Integer & Barrier Optimizers
5725-A06 5725-A29 5724-Y48 5724-Y49 5724-Y54 5724-Y55 5655-Y21
Copyright IBM Corp. 1988, 2022.  All Rights Reserved.

Type 'help' for a list of available commands.
Type 'help' followed by a command name for more
information on commands.

CPLEX> Selected objective sense:  MINIMIZE
Selected objective  name:  00000000
Selected RHS        name:  RHS1
Selected bound      name:  BOUND
Problem 'ee.mps' read.
Read time = 0.03 sec. (3.17 ticks)
CPLEX> New value for time limit in seconds: 7200
CPLEX> New value for parallel optimization mode: -1
CPLEX> New value for default parallel thread count: 40
CPLEX> New value for mixed integer optimality gap tolerance: 1e-13
CPLEX> Version identifier: 22.1.1.0 | 2022-11-28 | 9160aff4d
CPXPARAM_Threads                                 40
CPXPARAM_Parallel                                -1
CPXPARAM_TimeLimit                               7200
CPXPARAM_MIP_Tolerances_MIPGap                   1e-13
Found incumbent of value 0.000000 after 0.00 sec. (0.31 ticks)
Tried aggregator 2 times.
MIP Presolve eliminated 180 rows and 2745 columns.
MIP Presolve modified 6090 coefficients.
Aggregator did 713 substitutions.
Reduced MIP has 3635 rows, 7835 columns, and 28930 nonzeros.
Reduced MIP has 7835 binaries, 0 generals, 0 SOSs, and 0 indicators.
Presolve time = 0.07 sec. (68.91 ticks)
Probing time = 0.03 sec. (5.32 ticks)
Tried aggregator 1 time.
Detecting symmetries...
Reduced MIP has 3635 rows, 7835 columns, and 28930 nonzeros.
Reduced MIP has 7835 binaries, 0 generals, 0 SOSs, and 0 indicators.
Presolve time = 0.02 sec. (21.98 ticks)
Probing time = 0.02 sec. (5.12 ticks)
Clique table members: 18781.
MIP emphasis: balance optimality and feasibility.
MIP search method: dynamic search.
Parallel mode: opportunistic, using up to 40 threads.
Root relaxation solution time = 0.15 sec. (110.67 ticks)

        Nodes                                         Cuts/
   Node  Left     Objective  IInf  Best Integer    Best Bound    ItCnt     Gap

*     0+    0                            0.0000  -1.54000e+13              --- 
*     0+    0                      -6.00000e+12  -1.54000e+13           156.67%
*     0+    0                      -7.20000e+12  -1.54000e+13           113.89%
*     0+    0                      -8.40000e+12  -1.54000e+13            83.33%
      0     0  -1.53900e+13    83  -8.40000e+12  -1.53900e+13     2500   83.21%
*     0+    0                      -1.29900e+13  -1.53900e+13            18.48%
*     0+    0                      -1.53900e+13  -1.53900e+13             0.00%
*     0+    0                      -1.53900e+13  -1.53900e+13             0.00%
      0     0  -1.53900e+13    99  -1.53900e+13      Cuts: 73     6442    0.00%
      0     0  -1.53900e+13   114  -1.53900e+13      Cuts: 59     6660    0.00%
*     0+    0                      -1.53900e+13  -1.53900e+13             0.00%
      0    23        cutoff        -1.53900e+13  -1.53900e+13    10609    0.00%
Elapsed time = 2.81 sec. (1470.01 ticks, tree = 0.02 MB, solutions = 8)
    226    71  -1.53900e+13   144  -1.53900e+13  -1.53900e+13    31905    0.00%
    716    70  -1.53900e+13   112  -1.53900e+13  -1.53900e+13    33752    0.00%
   1229   149        cutoff        -1.53900e+13  -1.53900e+13    54417    0.00%
   1803   198  -1.53900e+13    70  -1.53900e+13  -1.53900e+13    66454    0.00%
   2288   426        cutoff        -1.53900e+13  -1.53900e+13   119115    0.00%
   2597   457        cutoff        -1.53900e+13  -1.53900e+13   134484    0.00%
   2815   591  -1.53900e+13   150  -1.53900e+13  -1.53900e+13   154702    0.00%
   3213  1101  -1.53900e+13    57  -1.53900e+13  -1.53900e+13   241180    0.00%
   3774  1222  -1.53900e+13    99  -1.53900e+13  -1.53900e+13   258084    0.00%
   6542  1880        cutoff        -1.53900e+13  -1.53900e+13   330760    0.00%
Elapsed time = 9.01 sec. (4572.52 ticks, tree = 23.75 MB, solutions = 8)
   9128  2722  -1.53900e+13    85  -1.53900e+13  -1.53900e+13   453091    0.00%
  11000  3379  -1.53900e+13   339  -1.53900e+13  -1.53900e+13   548404    0.00%
  11774  4211  -1.53900e+13   122  -1.53900e+13  -1.53900e+13   659196    0.00%

Performing restart 1

Repeating presolve.
Tried aggregator 3 times.
MIP Presolve eliminated 290 rows and 1373 columns.
MIP Presolve added 2 rows and 0 columns.
MIP Presolve modified 1869 coefficients.
Aggregator did 320 substitutions.
Reduced MIP has 2967 rows, 6111 columns, and 22269 nonzeros.
Reduced MIP has 6111 binaries, 0 generals, 0 SOSs, and 0 indicators.
Presolve time = 0.09 sec. (87.55 ticks)
Tried aggregator 2 times.
MIP Presolve eliminated 72 rows and 102 columns.
Aggregator did 28 substitutions.
Reduced MIP has 2867 rows, 5949 columns, and 21725 nonzeros.
Reduced MIP has 5949 binaries, 0 generals, 0 SOSs, and 0 indicators.
Presolve time = 0.04 sec. (36.24 ticks)
Tried aggregator 1 time.
Reduced MIP has 2867 rows, 5949 columns, and 21725 nonzeros.
Reduced MIP has 5949 binaries, 0 generals, 0 SOSs, and 0 indicators.
Presolve time = 0.02 sec. (15.71 ticks)
Represolve time = 0.35 sec. (226.32 ticks)
  11775     0  -1.53900e+13   272  -1.53900e+13      Cuts: 20   903386    0.00%
  11775     0  -1.53900e+13   229  -1.53900e+13      Cuts: 21   903677    0.00%
  11775     0  -1.53900e+13   297  -1.53900e+13      Cuts: 15   903780    0.00%
  11775     0  -1.53900e+13   321  -1.53900e+13      Cuts: 34   903958    0.00%
  11775     0  -1.53900e+13   253  -1.53900e+13      Cuts: 21   904025    0.00%
  11775     0  -1.53900e+13   283  -1.53900e+13       Cuts: 7   904073    0.00%
  11775     0  -1.53900e+13   196  -1.53900e+13      Cuts: 40   904308    0.00%
  11775     0  -1.53900e+13   311  -1.53900e+13      Cuts: 42   904471    0.00%
  11775     0  -1.53900e+13   298  -1.53900e+13      Cuts: 21   904558    0.00%
  11775     0  -1.53900e+13   308  -1.53900e+13      Cuts: 23   904653    0.00%
  11775     0  -1.53900e+13   266  -1.53900e+13      Cuts: 23   904737    0.00%
  11775     0  -1.53900e+13   235  -1.53900e+13      Cuts: 22   904791    0.00%
  11775     0  -1.53900e+13   289  -1.53900e+13      Cuts: 14   904898    0.00%
  11775     0  -1.53900e+13   326  -1.53900e+13      Cuts: 11   904947    0.00%
  11775     0  -1.53900e+13   336  -1.53900e+13      Cuts: 17   905049    0.00%
  11775     0  -1.53900e+13   356  -1.53900e+13      Cuts: 11   905118    0.00%
  11775    17        cutoff        -1.53900e+13  -1.53900e+13   908441    0.00%
* 12393    86      integral     0  -1.53900e+13  -1.53900e+13   977123    0.00%
  12487    63  -1.53900e+13   140  -1.53900e+13  -1.53900e+13   940949    0.00%
  13930    95  -1.53900e+13   112  -1.53900e+13  -1.53900e+13   962538    0.00%
  15659   164  -1.53900e+13   226  -1.53900e+13  -1.53900e+13  1056049    0.00%
  17698   252  -1.53900e+13   274  -1.53900e+13  -1.53900e+13  1174049    0.00%
  19143   358        cutoff        -1.53900e+13  -1.53900e+13  1249152    0.00%
  20196   418  -1.53900e+13   117  -1.53900e+13  -1.53900e+13  1306910    0.00%
Elapsed time = 26.80 sec. (15945.02 ticks, tree = 1.59 MB, solutions = 20)
  21321    54        cutoff        -1.53900e+13  -1.53900e+13  1707798    0.00%
  21555   529  -1.53900e+13   198  -1.53900e+13  -1.53900e+13  1646000    0.00%

GUB cover cuts applied:  3
Clique cuts applied:  11
Cover cuts applied:  336
Flow cuts applied:  1
Mixed integer rounding cuts applied:  23
Zero-half cuts applied:  82
Gomory fractional cuts applied:  19

Root node processing (before b&c):
  Real time             =    1.72 sec. (1459.71 ticks)
Parallel b&c, 40 threads:
  Real time             =   25.11 sec. (16700.77 ticks)
  Sync time (average)   =    5.23 sec.
  Wait time (average)   =    0.13 sec.
                          ------------
Total (root+branch&cut) =   26.83 sec. (18160.49 ticks)

Solution pool: 20 solutions saved.

MIP - Integer optimal solution:  Objective = -1.5389999489e+13
Solution time =   26.97 sec.  Iterations = 1726979  Nodes = 21578
Deterministic time = 18160.52 ticks  (673.41 ticks/sec)

CPLEX> Solution 'p21' written to file 'ee.sol'.
CPLEX> 